154 10 172 78 3 85 2 90 3 58 1 60 9 75 8 42 0 60 8 72 7 42 0 
155 10 128 78 0 85 8 90 9 58 7 60 8 75 5 42 6 60 5 72 9 42 7 
156 10 149 78 1 85 7 90 7 58 3 60 3 75 8 42 0 60 9 72 7 42 7 
157 10 166 78 8 85 3 90 9 58 4 60 8 75 5 42 0 60 5 72 6 42 3 
158 10 94 78 1 85 5 90 6 58 4 60 5 75 5 42 4 60 5 72 6 42 9 
